p cnf 216 1332
1 -97 0
1 -98 0
97 -97 0
98 -98 0
17 -103 0
17 -104 0
103 -103 0
104 -104 0
33 -109 0
33 -110 0
109 -109 0
110 -110 0
49 -115 0
49 -116 0
115 -115 0
116 -116 0
65 -121 0
65 -122 0
121 -121 0
122 -122 0
81 -127 0
81 -128 0
127 -127 0
128 -128 0
2 -133 -97 0
-2 133 -97 0
2 133 -98 0
-2 -133 -98 0
18 -133 -103 0
-18 133 -103 0
18 133 -104 0
-18 -133 -104 0
34 -133 -109 0
-34 133 -109 0
34 133 -110 0
-34 -133 -110 0
50 -133 -115 0
-50 133 -115 0
50 133 -116 0
-50 -133 -116 0
66 -133 -121 0
-66 133 -121 0
66 133 -122 0
-66 -133 -122 0
82 -133 -127 0
-82 133 -127 0
82 133 -128 0
-82 -133 -128 0
3 -97 0
3 -98 0
97 -97 0
98 -98 0
19 -103 0
19 -104 0
103 -103 0
104 -104 0
35 -109 0
35 -110 0
109 -109 0
110 -110 0
51 -115 0
51 -116 0
115 -115 0
116 -116 0
67 -121 0
67 -122 0
121 -121 0
122 -122 0
83 -127 0
83 -128 0
127 -127 0
128 -128 0
4 -134 -97 0
-4 134 -97 0
4 134 -98 0
-4 -134 -98 0
20 -134 -103 0
-20 134 -103 0
20 134 -104 0
-20 -134 -104 0
36 -134 -109 0
-36 134 -109 0
36 134 -110 0
-36 -134 -110 0
52 -134 -115 0
-52 134 -115 0
52 134 -116 0
-52 -134 -116 0
68 -134 -121 0
-68 134 -121 0
68 134 -122 0
-68 -134 -122 0
84 -134 -127 0
-84 134 -127 0
84 134 -128 0
-84 -134 -128 0
5 -97 0
5 -98 0
97 -97 0
98 -98 0
21 -103 0
21 -104 0
103 -103 0
104 -104 0
37 -109 0
37 -110 0
109 -109 0
110 -110 0
53 -115 0
53 -116 0
115 -115 0
116 -116 0
69 -121 0
69 -122 0
121 -121 0
122 -122 0
85 -127 0
85 -128 0
127 -127 0
128 -128 0
6 -97 0
6 -98 0
97 -97 0
98 -98 0
22 -103 0
22 -104 0
103 -103 0
104 -104 0
38 -109 0
38 -110 0
109 -109 0
110 -110 0
54 -115 0
54 -116 0
115 -115 0
116 -116 0
70 -121 0
70 -122 0
121 -121 0
122 -122 0
86 -127 0
86 -128 0
127 -127 0
128 -128 0
7 -135 -97 0
-7 135 -97 0
7 135 -98 0
-7 -135 -98 0
23 -135 -103 0
-23 135 -103 0
23 135 -104 0
-23 -135 -104 0
39 -135 -109 0
-39 135 -109 0
39 135 -110 0
-39 -135 -110 0
55 -135 -115 0
-55 135 -115 0
55 135 -116 0
-55 -135 -116 0
71 -135 -121 0
-71 135 -121 0
71 135 -122 0
-71 -135 -122 0
87 -135 -127 0
-87 135 -127 0
87 135 -128 0
-87 -135 -128 0
8 -97 0
8 -98 0
97 -97 0
98 -98 0
24 -103 0
24 -104 0
103 -103 0
104 -104 0
40 -109 0
40 -110 0
109 -109 0
110 -110 0
56 -115 0
56 -116 0
115 -115 0
116 -116 0
72 -121 0
72 -122 0
121 -121 0
122 -122 0
88 -127 0
88 -128 0
127 -127 0
128 -128 0
9 -97 0
9 -98 0
97 -97 0
98 -98 0
25 -103 0
25 -104 0
103 -103 0
104 -104 0
41 -109 0
41 -110 0
109 -109 0
110 -110 0
57 -115 0
57 -116 0
115 -115 0
116 -116 0
73 -121 0
73 -122 0
121 -121 0
122 -122 0
89 -127 0
89 -128 0
127 -127 0
128 -128 0
10 -136 -97 0
-10 136 -97 0
10 136 -98 0
-10 -136 -98 0
26 -136 -103 0
-26 136 -103 0
26 136 -104 0
-26 -136 -104 0
42 -136 -109 0
-42 136 -109 0
42 136 -110 0
-42 -136 -110 0
58 -136 -115 0
-58 136 -115 0
58 136 -116 0
-58 -136 -116 0
74 -136 -121 0
-74 136 -121 0
74 136 -122 0
-74 -136 -122 0
90 -136 -127 0
-90 136 -127 0
90 136 -128 0
-90 -136 -128 0
11 -97 0
11 -98 0
97 -97 0
98 -98 0
27 -103 0
27 -104 0
103 -103 0
104 -104 0
43 -109 0
43 -110 0
109 -109 0
110 -110 0
59 -115 0
59 -116 0
115 -115 0
116 -116 0
75 -121 0
75 -122 0
121 -121 0
122 -122 0
91 -127 0
91 -128 0
127 -127 0
128 -128 0
-12 -97 0
-12 -98 0
97 -97 0
98 -98 0
-28 -103 0
-28 -104 0
103 -103 0
104 -104 0
-44 -109 0
-44 -110 0
109 -109 0
110 -110 0
-60 -115 0
-60 -116 0
115 -115 0
116 -116 0
-76 -121 0
-76 -122 0
121 -121 0
122 -122 0
-92 -127 0
-92 -128 0
127 -127 0
128 -128 0
13 -137 -97 0
-13 137 -97 0
13 137 -98 0
-13 -137 -98 0
29 -137 -103 0
-29 137 -103 0
29 137 -104 0
-29 -137 -104 0
45 -137 -109 0
-45 137 -109 0
45 137 -110 0
-45 -137 -110 0
61 -137 -115 0
-61 137 -115 0
61 137 -116 0
-61 -137 -116 0
77 -137 -121 0
-77 137 -121 0
77 137 -122 0
-77 -137 -122 0
93 -137 -127 0
-93 137 -127 0
93 137 -128 0
-93 -137 -128 0
14 -138 -97 0
-14 138 -97 0
14 138 -98 0
-14 -138 -98 0
30 -138 -103 0
-30 138 -103 0
30 138 -104 0
-30 -138 -104 0
46 -138 -109 0
-46 138 -109 0
46 138 -110 0
-46 -138 -110 0
62 -138 -115 0
-62 138 -115 0
62 138 -116 0
-62 -138 -116 0
78 -138 -121 0
-78 138 -121 0
78 138 -122 0
-78 -138 -122 0
94 -138 -127 0
-94 138 -127 0
94 138 -128 0
-94 -138 -128 0
15 -97 0
15 -98 0
97 -97 0
98 -98 0
31 -103 0
31 -104 0
103 -103 0
104 -104 0
47 -109 0
47 -110 0
109 -109 0
110 -110 0
63 -115 0
63 -116 0
115 -115 0
116 -116 0
79 -121 0
79 -122 0
121 -121 0
122 -122 0
95 -127 0
95 -128 0
127 -127 0
128 -128 0
16 -97 0
16 -98 0
97 -97 0
98 -98 0
32 -103 0
32 -104 0
103 -103 0
104 -104 0
48 -109 0
48 -110 0
109 -109 0
110 -110 0
64 -115 0
64 -116 0
115 -115 0
116 -116 0
80 -121 0
80 -122 0
121 -121 0
122 -122 0
96 -127 0
96 -128 0
127 -127 0
128 -128 0
-181 97 0
181 -97 0
-182 98 0
181 -98 0
-181 -97 0
-182 -98 0
-187 97 181 0
187 -97 0
187 -181 0
-188 98 182 0
188 -98 0
188 -182 0
-187 -103 0
-188 -104 0
-193 103 187 0
193 -103 0
193 -187 0
-194 104 188 0
194 -104 0
194 -188 0
-193 -109 0
-194 -110 0
-199 109 193 0
199 -109 0
199 -193 0
-200 110 194 0
200 -110 0
200 -194 0
-199 -115 0
-200 -116 0
-205 115 199 0
205 -115 0
205 -199 0
-206 116 200 0
206 -116 0
206 -200 0
-205 -121 0
-206 -122 0
-211 121 205 0
211 -121 0
211 -205 0
-212 122 206 0
212 -122 0
212 -206 0
-211 -127 0
-212 -128 0
211 0
212 0
1 -99 0
1 -100 0
99 -99 0
100 -100 0
17 -105 0
17 -106 0
105 -105 0
106 -106 0
33 -111 0
33 -112 0
111 -111 0
112 -112 0
49 -117 0
49 -118 0
117 -117 0
118 -118 0
65 -123 0
65 -124 0
123 -123 0
124 -124 0
81 -129 0
81 -130 0
129 -129 0
130 -130 0
2 -139 -99 0
-2 139 -99 0
2 139 -100 0
-2 -139 -100 0
18 -139 -105 0
-18 139 -105 0
18 139 -106 0
-18 -139 -106 0
34 -139 -111 0
-34 139 -111 0
34 139 -112 0
-34 -139 -112 0
50 -139 -117 0
-50 139 -117 0
50 139 -118 0
-50 -139 -118 0
66 -139 -123 0
-66 139 -123 0
66 139 -124 0
-66 -139 -124 0
82 -139 -129 0
-82 139 -129 0
82 139 -130 0
-82 -139 -130 0
3 -99 0
3 -100 0
99 -99 0
100 -100 0
19 -105 0
19 -106 0
105 -105 0
106 -106 0
35 -111 0
35 -112 0
111 -111 0
112 -112 0
51 -117 0
51 -118 0
117 -117 0
118 -118 0
67 -123 0
67 -124 0
123 -123 0
124 -124 0
83 -129 0
83 -130 0
129 -129 0
130 -130 0
4 -140 -99 0
-4 140 -99 0
4 140 -100 0
-4 -140 -100 0
20 -140 -105 0
-20 140 -105 0
20 140 -106 0
-20 -140 -106 0
36 -140 -111 0
-36 140 -111 0
36 140 -112 0
-36 -140 -112 0
52 -140 -117 0
-52 140 -117 0
52 140 -118 0
-52 -140 -118 0
68 -140 -123 0
-68 140 -123 0
68 140 -124 0
-68 -140 -124 0
84 -140 -129 0
-84 140 -129 0
84 140 -130 0
-84 -140 -130 0
5 -99 0
5 -100 0
99 -99 0
100 -100 0
21 -105 0
21 -106 0
105 -105 0
106 -106 0
37 -111 0
37 -112 0
111 -111 0
112 -112 0
53 -117 0
53 -118 0
117 -117 0
118 -118 0
69 -123 0
69 -124 0
123 -123 0
124 -124 0
85 -129 0
85 -130 0
129 -129 0
130 -130 0
6 -99 0
6 -100 0
99 -99 0
100 -100 0
22 -105 0
22 -106 0
105 -105 0
106 -106 0
38 -111 0
38 -112 0
111 -111 0
112 -112 0
54 -117 0
54 -118 0
117 -117 0
118 -118 0
70 -123 0
70 -124 0
123 -123 0
124 -124 0
86 -129 0
86 -130 0
129 -129 0
130 -130 0
7 -141 -99 0
-7 141 -99 0
7 141 -100 0
-7 -141 -100 0
23 -141 -105 0
-23 141 -105 0
23 141 -106 0
-23 -141 -106 0
39 -141 -111 0
-39 141 -111 0
39 141 -112 0
-39 -141 -112 0
55 -141 -117 0
-55 141 -117 0
55 141 -118 0
-55 -141 -118 0
71 -141 -123 0
-71 141 -123 0
71 141 -124 0
-71 -141 -124 0
87 -141 -129 0
-87 141 -129 0
87 141 -130 0
-87 -141 -130 0
8 -99 0
8 -100 0
99 -99 0
100 -100 0
24 -105 0
24 -106 0
105 -105 0
106 -106 0
40 -111 0
40 -112 0
111 -111 0
112 -112 0
56 -117 0
56 -118 0
117 -117 0
118 -118 0
72 -123 0
72 -124 0
123 -123 0
124 -124 0
88 -129 0
88 -130 0
129 -129 0
130 -130 0
9 -99 0
9 -100 0
99 -99 0
100 -100 0
25 -105 0
25 -106 0
105 -105 0
106 -106 0
41 -111 0
41 -112 0
111 -111 0
112 -112 0
57 -117 0
57 -118 0
117 -117 0
118 -118 0
73 -123 0
73 -124 0
123 -123 0
124 -124 0
89 -129 0
89 -130 0
129 -129 0
130 -130 0
10 -142 -99 0
-10 142 -99 0
10 142 -100 0
-10 -142 -100 0
26 -142 -105 0
-26 142 -105 0
26 142 -106 0
-26 -142 -106 0
42 -142 -111 0
-42 142 -111 0
42 142 -112 0
-42 -142 -112 0
58 -142 -117 0
-58 142 -117 0
58 142 -118 0
-58 -142 -118 0
74 -142 -123 0
-74 142 -123 0
74 142 -124 0
-74 -142 -124 0
90 -142 -129 0
-90 142 -129 0
90 142 -130 0
-90 -142 -130 0
11 -99 0
11 -100 0
99 -99 0
100 -100 0
27 -105 0
27 -106 0
105 -105 0
106 -106 0
43 -111 0
43 -112 0
111 -111 0
112 -112 0
59 -117 0
59 -118 0
117 -117 0
118 -118 0
75 -123 0
75 -124 0
123 -123 0
124 -124 0
91 -129 0
91 -130 0
129 -129 0
130 -130 0
12 -143 -99 0
-12 143 -99 0
12 143 -100 0
-12 -143 -100 0
28 -143 -105 0
-28 143 -105 0
28 143 -106 0
-28 -143 -106 0
44 -143 -111 0
-44 143 -111 0
44 143 -112 0
-44 -143 -112 0
60 -143 -117 0
-60 143 -117 0
60 143 -118 0
-60 -143 -118 0
76 -143 -123 0
-76 143 -123 0
76 143 -124 0
-76 -143 -124 0
92 -143 -129 0
-92 143 -129 0
92 143 -130 0
-92 -143 -130 0
13 -144 -99 0
-13 144 -99 0
13 144 -100 0
-13 -144 -100 0
29 -144 -105 0
-29 144 -105 0
29 144 -106 0
-29 -144 -106 0
45 -144 -111 0
-45 144 -111 0
45 144 -112 0
-45 -144 -112 0
61 -144 -117 0
-61 144 -117 0
61 144 -118 0
-61 -144 -118 0
77 -144 -123 0
-77 144 -123 0
77 144 -124 0
-77 -144 -124 0
93 -144 -129 0
-93 144 -129 0
93 144 -130 0
-93 -144 -130 0
14 -99 0
14 -100 0
99 -99 0
100 -100 0
30 -105 0
30 -106 0
105 -105 0
106 -106 0
46 -111 0
46 -112 0
111 -111 0
112 -112 0
62 -117 0
62 -118 0
117 -117 0
118 -118 0
78 -123 0
78 -124 0
123 -123 0
124 -124 0
94 -129 0
94 -130 0
129 -129 0
130 -130 0
15 -99 0
15 -100 0
99 -99 0
100 -100 0
31 -105 0
31 -106 0
105 -105 0
106 -106 0
47 -111 0
47 -112 0
111 -111 0
112 -112 0
63 -117 0
63 -118 0
117 -117 0
118 -118 0
79 -123 0
79 -124 0
123 -123 0
124 -124 0
95 -129 0
95 -130 0
129 -129 0
130 -130 0
16 -99 0
16 -100 0
99 -99 0
100 -100 0
32 -105 0
32 -106 0
105 -105 0
106 -106 0
48 -111 0
48 -112 0
111 -111 0
112 -112 0
64 -117 0
64 -118 0
117 -117 0
118 -118 0
80 -123 0
80 -124 0
123 -123 0
124 -124 0
96 -129 0
96 -130 0
129 -129 0
130 -130 0
-183 99 0
183 -99 0
-184 100 0
183 -100 0
-183 -99 0
-184 -100 0
-189 99 183 0
189 -99 0
189 -183 0
-190 100 184 0
190 -100 0
190 -184 0
-189 -105 0
-190 -106 0
-195 105 189 0
195 -105 0
195 -189 0
-196 106 190 0
196 -106 0
196 -190 0
-195 -111 0
-196 -112 0
-201 111 195 0
201 -111 0
201 -195 0
-202 112 196 0
202 -112 0
202 -196 0
-201 -117 0
-202 -118 0
-207 117 201 0
207 -117 0
207 -201 0
-208 118 202 0
208 -118 0
208 -202 0
-207 -123 0
-208 -124 0
-213 123 207 0
213 -123 0
213 -207 0
-214 124 208 0
214 -124 0
214 -208 0
-213 -129 0
-214 -130 0
213 0
214 0
1 -101 0
1 -102 0
101 -101 0
102 -102 0
17 -107 0
17 -108 0
107 -107 0
108 -108 0
33 -113 0
33 -114 0
113 -113 0
114 -114 0
49 -119 0
49 -120 0
119 -119 0
120 -120 0
65 -125 0
65 -126 0
125 -125 0
126 -126 0
81 -131 0
81 -132 0
131 -131 0
132 -132 0
2 -145 -101 0
-2 145 -101 0
2 145 -102 0
-2 -145 -102 0
18 -145 -107 0
-18 145 -107 0
18 145 -108 0
-18 -145 -108 0
34 -145 -113 0
-34 145 -113 0
34 145 -114 0
-34 -145 -114 0
50 -145 -119 0
-50 145 -119 0
50 145 -120 0
-50 -145 -120 0
66 -145 -125 0
-66 145 -125 0
66 145 -126 0
-66 -145 -126 0
82 -145 -131 0
-82 145 -131 0
82 145 -132 0
-82 -145 -132 0
3 -146 -101 0
-3 146 -101 0
3 146 -102 0
-3 -146 -102 0
19 -146 -107 0
-19 146 -107 0
19 146 -108 0
-19 -146 -108 0
35 -146 -113 0
-35 146 -113 0
35 146 -114 0
-35 -146 -114 0
51 -146 -119 0
-51 146 -119 0
51 146 -120 0
-51 -146 -120 0
67 -146 -125 0
-67 146 -125 0
67 146 -126 0
-67 -146 -126 0
83 -146 -131 0
-83 146 -131 0
83 146 -132 0
-83 -146 -132 0
4 -147 -101 0
-4 147 -101 0
4 147 -102 0
-4 -147 -102 0
20 -147 -107 0
-20 147 -107 0
20 147 -108 0
-20 -147 -108 0
36 -147 -113 0
-36 147 -113 0
36 147 -114 0
-36 -147 -114 0
52 -147 -119 0
-52 147 -119 0
52 147 -120 0
-52 -147 -120 0
68 -147 -125 0
-68 147 -125 0
68 147 -126 0
-68 -147 -126 0
84 -147 -131 0
-84 147 -131 0
84 147 -132 0
-84 -147 -132 0
5 -101 0
5 -102 0
101 -101 0
102 -102 0
21 -107 0
21 -108 0
107 -107 0
108 -108 0
37 -113 0
37 -114 0
113 -113 0
114 -114 0
53 -119 0
53 -120 0
119 -119 0
120 -120 0
69 -125 0
69 -126 0
125 -125 0
126 -126 0
85 -131 0
85 -132 0
131 -131 0
132 -132 0
6 -101 0
6 -102 0
101 -101 0
102 -102 0
22 -107 0
22 -108 0
107 -107 0
108 -108 0
38 -113 0
38 -114 0
113 -113 0
114 -114 0
54 -119 0
54 -120 0
119 -119 0
120 -120 0
70 -125 0
70 -126 0
125 -125 0
126 -126 0
86 -131 0
86 -132 0
131 -131 0
132 -132 0
7 -101 0
7 -102 0
101 -101 0
102 -102 0
23 -107 0
23 -108 0
107 -107 0
108 -108 0
39 -113 0
39 -114 0
113 -113 0
114 -114 0
55 -119 0
55 -120 0
119 -119 0
120 -120 0
71 -125 0
71 -126 0
125 -125 0
126 -126 0
87 -131 0
87 -132 0
131 -131 0
132 -132 0
8 -101 0
8 -102 0
101 -101 0
102 -102 0
24 -107 0
24 -108 0
107 -107 0
108 -108 0
40 -113 0
40 -114 0
113 -113 0
114 -114 0
56 -119 0
56 -120 0
119 -119 0
120 -120 0
72 -125 0
72 -126 0
125 -125 0
126 -126 0
88 -131 0
88 -132 0
131 -131 0
132 -132 0
9 -148 -101 0
-9 148 -101 0
9 148 -102 0
-9 -148 -102 0
25 -148 -107 0
-25 148 -107 0
25 148 -108 0
-25 -148 -108 0
41 -148 -113 0
-41 148 -113 0
41 148 -114 0
-41 -148 -114 0
57 -148 -119 0
-57 148 -119 0
57 148 -120 0
-57 -148 -120 0
73 -148 -125 0
-73 148 -125 0
73 148 -126 0
-73 -148 -126 0
89 -148 -131 0
-89 148 -131 0
89 148 -132 0
-89 -148 -132 0
10 -149 -101 0
-10 149 -101 0
10 149 -102 0
-10 -149 -102 0
26 -149 -107 0
-26 149 -107 0
26 149 -108 0
-26 -149 -108 0
42 -149 -113 0
-42 149 -113 0
42 149 -114 0
-42 -149 -114 0
58 -149 -119 0
-58 149 -119 0
58 149 -120 0
-58 -149 -120 0
74 -149 -125 0
-74 149 -125 0
74 149 -126 0
-74 -149 -126 0
90 -149 -131 0
-90 149 -131 0
90 149 -132 0
-90 -149 -132 0
11 -101 0
11 -102 0
101 -101 0
102 -102 0
27 -107 0
27 -108 0
107 -107 0
108 -108 0
43 -113 0
43 -114 0
113 -113 0
114 -114 0
59 -119 0
59 -120 0
119 -119 0
120 -120 0
75 -125 0
75 -126 0
125 -125 0
126 -126 0
91 -131 0
91 -132 0
131 -131 0
132 -132 0
12 -150 -101 0
-12 150 -101 0
12 150 -102 0
-12 -150 -102 0
28 -150 -107 0
-28 150 -107 0
28 150 -108 0
-28 -150 -108 0
44 -150 -113 0
-44 150 -113 0
44 150 -114 0
-44 -150 -114 0
60 -150 -119 0
-60 150 -119 0
60 150 -120 0
-60 -150 -120 0
76 -150 -125 0
-76 150 -125 0
76 150 -126 0
-76 -150 -126 0
92 -150 -131 0
-92 150 -131 0
92 150 -132 0
-92 -150 -132 0
13 -151 -101 0
-13 151 -101 0
13 151 -102 0
-13 -151 -102 0
29 -151 -107 0
-29 151 -107 0
29 151 -108 0
-29 -151 -108 0
45 -151 -113 0
-45 151 -113 0
45 151 -114 0
-45 -151 -114 0
61 -151 -119 0
-61 151 -119 0
61 151 -120 0
-61 -151 -120 0
77 -151 -125 0
-77 151 -125 0
77 151 -126 0
-77 -151 -126 0
93 -151 -131 0
-93 151 -131 0
93 151 -132 0
-93 -151 -132 0
14 -152 -101 0
-14 152 -101 0
14 152 -102 0
-14 -152 -102 0
30 -152 -107 0
-30 152 -107 0
30 152 -108 0
-30 -152 -108 0
46 -152 -113 0
-46 152 -113 0
46 152 -114 0
-46 -152 -114 0
62 -152 -119 0
-62 152 -119 0
62 152 -120 0
-62 -152 -120 0
78 -152 -125 0
-78 152 -125 0
78 152 -126 0
-78 -152 -126 0
94 -152 -131 0
-94 152 -131 0
94 152 -132 0
-94 -152 -132 0
15 -101 0
15 -102 0
101 -101 0
102 -102 0
31 -107 0
31 -108 0
107 -107 0
108 -108 0
47 -113 0
47 -114 0
113 -113 0
114 -114 0
63 -119 0
63 -120 0
119 -119 0
120 -120 0
79 -125 0
79 -126 0
125 -125 0
126 -126 0
95 -131 0
95 -132 0
131 -131 0
132 -132 0
16 -153 -101 0
-16 153 -101 0
16 153 -102 0
-16 -153 -102 0
32 -153 -107 0
-32 153 -107 0
32 153 -108 0
-32 -153 -108 0
48 -153 -113 0
-48 153 -113 0
48 153 -114 0
-48 -153 -114 0
64 -153 -119 0
-64 153 -119 0
64 153 -120 0
-64 -153 -120 0
80 -153 -125 0
-80 153 -125 0
80 153 -126 0
-80 -153 -126 0
96 -153 -131 0
-96 153 -131 0
96 153 -132 0
-96 -153 -132 0
-185 101 0
185 -101 0
-186 102 0
185 -102 0
-185 -101 0
-186 -102 0
-191 101 185 0
191 -101 0
191 -185 0
-192 102 186 0
192 -102 0
192 -186 0
-191 -107 0
-192 -108 0
-197 107 191 0
197 -107 0
197 -191 0
-198 108 192 0
198 -108 0
198 -192 0
-197 -113 0
-198 -114 0
-203 113 197 0
203 -113 0
203 -197 0
-204 114 198 0
204 -114 0
204 -198 0
-203 -119 0
-204 -120 0
-209 119 203 0
209 -119 0
209 -203 0
-210 120 204 0
210 -120 0
210 -204 0
-209 -125 0
-210 -126 0
-215 125 209 0
215 -125 0
215 -209 0
-216 126 210 0
216 -126 0
216 -210 0
-215 -131 0
-216 -132 0
215 0
216 0
-97 104 110 116 122 128 0
-98 0
-103 110 116 122 128 0
-104 97 0
-109 116 122 128 0
-110 97 103 0
-115 122 128 0
-116 97 103 109 0
-121 128 0
-122 97 103 109 115 0
-127 0
-128 97 103 109 115 121 0
-99 106 112 118 124 130 0
-100 0
-105 112 118 124 130 0
-106 99 0
-111 118 124 130 0
-112 99 105 0
-117 124 130 0
-118 99 105 111 0
-123 130 0
-124 99 105 111 117 0
-129 0
-130 99 105 111 117 123 0
-101 108 114 120 126 132 0
-102 0
-107 114 120 126 132 0
-108 101 0
-113 120 126 132 0
-114 101 107 0
-119 126 132 0
-120 101 107 113 0
-125 132 0
-126 101 107 113 119 0
-131 0
-132 101 107 113 119 125 0
